% File represents an instance of a Composite Structure problem to be solved by a CP framework
% Created on 2025-03-26 10:42:15.843
T = 50;
n = 36;
m = 60;
edges = [(1, 2),
(7, 8),
(13, 14),
(19, 20),
(25, 26),
(31, 32),
(2, 3),
(8, 9),
(14, 15),
(20, 21),
(26, 27),
(33, 32),
(3, 4),
(9, 10),
(15, 16),
(21, 22),
(28, 27),
(33, 34),
(5, 4),
(11, 10),
(17, 16),
(23, 22),
(29, 28),
(34, 35),
(5, 6),
(11, 12),
(17, 18),
(23, 24),
(29, 30),
(35, 36),
(1, 7),
(7, 13),
(13, 19),
(19, 25),
(25, 31),
(2, 8),
(8, 14),
(14, 20),
(26, 20),
(26, 32),
(3, 9),
(9, 15),
(15, 21),
(21, 27),
(33, 27),
(4, 10),
(10, 16),
(16, 22),
(28, 22),
(28, 34),
(5, 11),
(11, 17),
(17, 23),
(29, 23),
(29, 35),
(6, 12),
(12, 18),
(18, 24),
(30, 24),
(30, 36)];
counts = [|6, 18, 6, 20,
|6, 14, 6, 18,
|4, 14, 4, 16,
|4, 12, 4, 16,
|4, 12, 4, 20,
|4, 12, 4, 14,
|4, 18, 4, 18,
|4, 12, 4, 18,
|4, 12, 4, 12,
|4, 12, 4, 10,
|4, 12, 4, 14,
|4, 10, 4, 12,
|4, 18, 4, 12,
|4, 12, 4, 12,
|4, 10, 4, 12,
|4, 8, 4, 10,
|4, 12, 4, 10,
|4, 8, 4, 10,
|4, 16, 4, 10,
|4, 12, 4, 8,
|4, 10, 4, 8,
|4, 6, 4, 6,
|4, 10, 4, 6,
|4, 6, 4, 6,
|4, 16, 4, 8,
|4, 14, 4, 8,
|4, 10, 4, 6,
|4, 10, 4, 8,
|4, 12, 4, 8,
|4, 10, 4, 6,
|4, 14, 4, 8,
|4, 14, 4, 6,
|4, 14, 4, 8,
|4, 8, 4, 8,
|4, 6, 4, 8,
|4, 6, 4, 4|];
